/*********************************************
 * OPL 20.1.0.0 Data
 * Author: hp
 * Creation Date: 02-Mar-2022 at 4:40:34 pm
 *********************************************/
size = 5;
cost = [
        [0,10,100000,70,100000]
        [100000,0,20,55,40]
        [100000,100000,0,10000,50]
        [100000,100000,10000,0,10]
        [100000,100000,100000,100000,0]];
        
demand=[190,210,200,150,150];
supply=[150,150,150,210,230];


 